NAME : portcgen-24-22
COMMENT : portcgen N=24, seed=22
TYPE : TSP
DIMENSION : 24
EDGE_WEIGHT_TYPE : EUC_2D
NODE_COORD_SECTION
1 18461 -156863
2 -149819 -22373
3 70016 356088
4 -44511 -71645
5 11184 328304
6 -142613 46719
7 132670 -165128
8 121235 -105288
9 -108325 421290
10 325458 16516
11 -153857 335851
12 -61402 -220082
13 332131 166829
14 -218168 -109965
15 130323 118659
16 119449 30369
17 199065 104493
18 229873 62381
19 16633 134700
20 34879 -285977
21 -217030 -30361
22 -267615 -397389
23 -7022 91322
24 111271 -21807
